Solver name: Clp
Solve time: 9.173984028
Termination status: OTHER_ERROR
Result count: 1
Primal status: UNKNOWN_RESULT_STATUS
Dual status: FEASIBLE_POINT
Coin0506I Presolve 277541 (-53) rows, 154925 (-53) columns and 789540 (571) elements
Clp0032I Errors objective 0 - 0 iterations time 6.012
